# Solution for model 2026-01-22_13-17-38
# Objective value = 7.8931893710961219e+02
start_0 27
start_1 36
start_2 57
start_3 54
start_4 15
start_5 15
start_6 15
start_7 15
start_8 51
start_9 0
start_10 30
start_11 33
hold_0_1 0
hold_0_2 0
hold_0_3 1
hold_0_4 0
hold_0_5 0
hold_0_6 0
hold_0_7 0
hold_0_8 0
hold_0_9 0
hold_0_10 0
hold_0_11 0
hold_0_12 0
hold_0_13 0
hold_0_14 0
hold_0_15 0
hold_0_16 0
hold_0_17 0
hold_0_18 0
hold_0_19 0
hold_0_20 0
hold_0_21 0
hold_0_22 0
hold_0_23 0
hold_0_24 0
hold_0_25 0
hold_0_26 0
hold_0_27 0
hold_0_28 0
hold_1_1 0
hold_1_2 0
hold_1_3 0
hold_1_4 0
hold_1_5 0
hold_1_6 0
hold_1_7 0
hold_1_8 0
hold_1_9 0
hold_1_10 0
hold_1_11 0
hold_1_12 0
hold_1_13 0
hold_1_14 0
hold_1_15 1
hold_1_16 0
hold_1_17 0
hold_1_18 0
hold_1_19 0
hold_1_20 0
hold_1_21 0
hold_1_22 0
hold_1_23 0
hold_1_24 0
hold_1_25 0
hold_1_26 0
hold_1_27 0
hold_1_28 0
hold_2_1 0
hold_2_2 0
hold_2_3 1
hold_2_4 0
hold_2_5 0
hold_2_6 0
hold_2_7 0
hold_2_8 0
hold_2_9 0
hold_2_10 0
hold_2_11 0
hold_2_12 0
hold_2_13 0
hold_2_14 0
hold_2_15 0
hold_2_16 0
hold_2_17 0
hold_2_18 0
hold_2_19 0
hold_2_20 0
hold_2_21 0
hold_2_22 0
hold_2_23 0
hold_2_24 0
hold_2_25 0
hold_2_26 0
hold_2_27 0
hold_2_28 0
hold_3_1 0
hold_3_2 0
hold_3_3 1
hold_3_4 0
hold_3_5 0
hold_3_6 0
hold_3_7 0
hold_3_8 0
hold_3_9 0
hold_3_10 0
hold_3_11 0
hold_3_12 0
hold_3_13 0
hold_3_14 0
hold_3_15 0
hold_3_16 0
hold_3_17 0
hold_3_18 0
hold_3_19 0
hold_3_20 0
hold_3_21 0
hold_3_22 0
hold_3_23 0
hold_3_24 0
hold_3_25 0
hold_3_26 0
hold_3_27 0
hold_3_28 0
hold_4_1 0
hold_4_2 0
hold_4_3 0
hold_4_4 0
hold_4_5 0
hold_4_6 0
hold_4_7 0
hold_4_8 0
hold_4_9 0
hold_4_10 0
hold_4_11 0
hold_4_12 1
hold_4_13 0
hold_4_14 0
hold_4_15 0
hold_4_16 0
hold_4_17 0
hold_4_18 0
hold_4_19 0
hold_4_20 0
hold_4_21 0
hold_4_22 0
hold_4_23 0
hold_4_24 0
hold_4_25 0
hold_4_26 0
hold_4_27 0
hold_4_28 0
hold_5_1 0
hold_5_2 0
hold_5_3 0
hold_5_4 0
hold_5_5 0
hold_5_6 0
hold_5_7 0
hold_5_8 0
hold_5_9 0
hold_5_10 0
hold_5_11 0
hold_5_12 1
hold_5_13 0
hold_5_14 0
hold_5_15 0
hold_5_16 0
hold_5_17 0
hold_5_18 0
hold_5_19 0
hold_5_20 0
hold_5_21 0
hold_5_22 0
hold_5_23 0
hold_5_24 0
hold_5_25 0
hold_5_26 0
hold_5_27 0
hold_5_28 0
hold_6_1 0
hold_6_2 0
hold_6_3 0
hold_6_4 0
hold_6_5 0
hold_6_6 0
hold_6_7 0
hold_6_8 0
hold_6_9 0
hold_6_10 0
hold_6_11 0
hold_6_12 1
hold_6_13 0
hold_6_14 0
hold_6_15 0
hold_6_16 0
hold_6_17 0
hold_6_18 0
hold_6_19 0
hold_6_20 0
hold_6_21 0
hold_6_22 0
hold_6_23 0
hold_6_24 0
hold_6_25 0
hold_6_26 0
hold_6_27 0
hold_6_28 0
hold_7_1 0
hold_7_2 0
hold_7_3 0
hold_7_4 0
hold_7_5 0
hold_7_6 0
hold_7_7 0
hold_7_8 0
hold_7_9 0
hold_7_10 0
hold_7_11 0
hold_7_12 1
hold_7_13 0
hold_7_14 0
hold_7_15 0
hold_7_16 0
hold_7_17 0
hold_7_18 0
hold_7_19 0
hold_7_20 0
hold_7_21 0
hold_7_22 0
hold_7_23 0
hold_7_24 0
hold_7_25 0
hold_7_26 0
hold_7_27 0
hold_7_28 0
hold_8_1 0
hold_8_2 0
hold_8_3 1
hold_8_4 0
hold_8_5 0
hold_8_6 0
hold_8_7 0
hold_8_8 0
hold_8_9 0
hold_8_10 0
hold_8_11 0
hold_8_12 0
hold_8_13 0
hold_8_14 0
hold_8_15 0
hold_8_16 0
hold_8_17 0
hold_8_18 0
hold_8_19 0
hold_8_20 0
hold_8_21 0
hold_8_22 0
hold_8_23 0
hold_8_24 0
hold_8_25 0
hold_8_26 0
hold_8_27 0
hold_8_28 0
hold_9_1 0
hold_9_2 0
hold_9_3 0
hold_9_4 0
hold_9_5 0
hold_9_6 0
hold_9_7 0
hold_9_8 0
hold_9_9 0
hold_9_10 0
hold_9_11 0
hold_9_12 0
hold_9_13 0
hold_9_14 0
hold_9_15 1
hold_9_16 0
hold_9_17 0
hold_9_18 0
hold_9_19 0
hold_9_20 0
hold_9_21 0
hold_9_22 0
hold_9_23 0
hold_9_24 0
hold_9_25 0
hold_9_26 0
hold_9_27 0
hold_9_28 0
hold_10_1 0
hold_10_2 0
hold_10_3 1
hold_10_4 0
hold_10_5 0
hold_10_6 0
hold_10_7 0
hold_10_8 0
hold_10_9 0
hold_10_10 0
hold_10_11 0
hold_10_12 0
hold_10_13 0
hold_10_14 0
hold_10_15 0
hold_10_16 0
hold_10_17 0
hold_10_18 0
hold_10_19 0
hold_10_20 0
hold_10_21 0
hold_10_22 0
hold_10_23 0
hold_10_24 0
hold_10_25 0
hold_10_26 0
hold_10_27 0
hold_10_28 0
hold_11_1 0
hold_11_2 0
hold_11_3 1
hold_11_4 0
hold_11_5 0
hold_11_6 0
hold_11_7 0
hold_11_8 0
hold_11_9 0
hold_11_10 0
hold_11_11 0
hold_11_12 0
hold_11_13 0
hold_11_14 0
hold_11_15 0
hold_11_16 0
hold_11_17 0
hold_11_18 0
hold_11_19 0
hold_11_20 0
hold_11_21 0
hold_11_22 0
hold_11_23 0
hold_11_24 0
hold_11_25 0
hold_11_26 0
hold_11_27 0
hold_11_28 0
flow_source_nic_in_0 0
flow_nic_out_0_sink 0
flow_nic_out_0_nic_in_1 0
flow_nic_out_0_nic_in_2 0
flow_nic_out_0_nic_in_3 0
flow_nic_out_0_nic_in_4 0
flow_nic_out_0_nic_in_5 0
flow_nic_out_0_nic_in_6 0
flow_nic_out_0_nic_in_7 7.8931893663015944e+02
flow_nic_out_0_nic_in_8 0
flow_nic_in_0_0 7.8931893663015762e+02
flow_0_nic_out_0 7.8931893663015762e+02
flow_source_nic_in_1 0
flow_nic_out_1_sink 0
flow_nic_out_1_nic_in_0 0
flow_nic_out_1_nic_in_2 0
flow_nic_out_1_nic_in_3 0
flow_nic_out_1_nic_in_4 0
flow_nic_out_1_nic_in_5 7.8931893710438567e+02
flow_nic_out_1_nic_in_6 0
flow_nic_out_1_nic_in_7 0
flow_nic_out_1_nic_in_8 0
flow_nic_in_1_1 7.8931893710438567e+02
flow_1_nic_out_1 7.8931893710438567e+02
flow_source_nic_in_2 0
flow_nic_out_2_sink 7.8931893663015114e+02
flow_nic_out_2_nic_in_0 0
flow_nic_out_2_nic_in_1 0
flow_nic_out_2_nic_in_3 0
flow_nic_out_2_nic_in_4 0
flow_nic_out_2_nic_in_5 0
flow_nic_out_2_nic_in_6 0
flow_nic_out_2_nic_in_7 0
flow_nic_out_2_nic_in_8 0
flow_nic_in_2_2 7.8931893663015251e+02
flow_2_nic_out_2 7.8931893663015251e+02
flow_source_nic_in_3 0
flow_nic_out_3_sink 0
flow_nic_out_3_nic_in_0 0
flow_nic_out_3_nic_in_1 0
flow_nic_out_3_nic_in_2 7.8931893663015251e+02
flow_nic_out_3_nic_in_4 0
flow_nic_out_3_nic_in_5 0
flow_nic_out_3_nic_in_6 0
flow_nic_out_3_nic_in_7 0
flow_nic_out_3_nic_in_8 0
flow_nic_in_3_3 7.8931893663015694e+02
flow_3_nic_out_3 7.8931893663015694e+02
flow_source_nic_in_4 0
flow_nic_out_4_sink 0
flow_nic_out_4_nic_in_0 7.8931893663015762e+02
flow_nic_out_4_nic_in_1 0
flow_nic_out_4_nic_in_2 0
flow_nic_out_4_nic_in_3 0
flow_nic_out_4_nic_in_5 0
flow_nic_out_4_nic_in_6 0
flow_nic_out_4_nic_in_7 0
flow_nic_out_4_nic_in_8 0
flow_nic_in_4_4 0
flow_4_nic_out_4 0
flow_nic_in_4_5 7.8931893615593788e+02
flow_5_nic_out_4 0
flow_nic_in_4_6 0
flow_6_nic_out_4 7.8931893615593845e+02
flow_nic_in_4_7 0
flow_7_nic_out_4 0
flow_4_5 0
flow_4_6 0
flow_4_7 3.6057692307692307e+08
flow_5_4 3.6057692307692355e+08
flow_5_6 7.8931893521547318e+02
flow_5_7 0
flow_6_4 0
flow_6_5 3.6057692307692307e+08
flow_6_7 0
flow_7_4 0
flow_7_5 0
flow_7_6 3.6057692307692307e+08
flow_source_nic_in_5 0
flow_nic_out_5_sink 0
flow_nic_out_5_nic_in_0 0
flow_nic_out_5_nic_in_1 0
flow_nic_out_5_nic_in_2 0
flow_nic_out_5_nic_in_3 7.8931893663015740e+02
flow_nic_out_5_nic_in_4 0
flow_nic_out_5_nic_in_6 0
flow_nic_out_5_nic_in_7 0
flow_nic_out_5_nic_in_8 0
flow_nic_in_5_8 7.8931893663015921e+02
flow_8_nic_out_5 7.8931893663015921e+02
flow_source_nic_in_6 7.8931893710961219e+02
flow_nic_out_6_sink 0
flow_nic_out_6_nic_in_0 0
flow_nic_out_6_nic_in_1 0
flow_nic_out_6_nic_in_2 0
flow_nic_out_6_nic_in_3 0
flow_nic_out_6_nic_in_4 7.8931893710961219e+02
flow_nic_out_6_nic_in_5 0
flow_nic_out_6_nic_in_7 0
flow_nic_out_6_nic_in_8 0
flow_nic_in_6_9 7.8931893710961219e+02
flow_9_nic_out_6 7.8931893710961219e+02
flow_source_nic_in_7 0
flow_nic_out_7_sink 0
flow_nic_out_7_nic_in_0 0
flow_nic_out_7_nic_in_1 0
flow_nic_out_7_nic_in_2 0
flow_nic_out_7_nic_in_3 0
flow_nic_out_7_nic_in_4 0
flow_nic_out_7_nic_in_5 0
flow_nic_out_7_nic_in_6 0
flow_nic_out_7_nic_in_8 7.8931893663015592e+02
flow_nic_in_7_10 7.8931893663015944e+02
flow_10_nic_out_7 7.8931893663015944e+02
flow_source_nic_in_8 0
flow_nic_out_8_sink 0
flow_nic_out_8_nic_in_0 0
flow_nic_out_8_nic_in_1 7.8931893663016081e+02
flow_nic_out_8_nic_in_2 0
flow_nic_out_8_nic_in_3 0
flow_nic_out_8_nic_in_4 0
flow_nic_out_8_nic_in_5 0
flow_nic_out_8_nic_in_6 0
flow_nic_out_8_nic_in_7 0
flow_nic_in_8_11 7.8931893663016035e+02
flow_11_nic_out_8 7.8931893663016035e+02
switch_source_nic_in_0 0
switch_nic_out_0_sink 0
switch_nic_out_0_nic_in_1 0
switch_nic_out_0_nic_in_2 0
switch_nic_out_0_nic_in_3 0
switch_nic_out_0_nic_in_4 0
switch_nic_out_0_nic_in_5 0
switch_nic_out_0_nic_in_6 0
switch_nic_out_0_nic_in_7 1
switch_nic_out_0_nic_in_8 0
switch_nic_in_0_0 1
switch_0_nic_out_0 1
switch_source_nic_in_1 0
switch_nic_out_1_sink 0
switch_nic_out_1_nic_in_0 0
switch_nic_out_1_nic_in_2 0
switch_nic_out_1_nic_in_3 0
switch_nic_out_1_nic_in_4 0
switch_nic_out_1_nic_in_5 1
switch_nic_out_1_nic_in_6 0
switch_nic_out_1_nic_in_7 0
switch_nic_out_1_nic_in_8 0
switch_nic_in_1_1 1
switch_1_nic_out_1 1
switch_source_nic_in_2 0
switch_nic_out_2_sink 1
switch_nic_out_2_nic_in_0 0
switch_nic_out_2_nic_in_1 0
switch_nic_out_2_nic_in_3 0
switch_nic_out_2_nic_in_4 0
switch_nic_out_2_nic_in_5 0
switch_nic_out_2_nic_in_6 0
switch_nic_out_2_nic_in_7 0
switch_nic_out_2_nic_in_8 0
switch_nic_in_2_2 1
switch_2_nic_out_2 1
switch_source_nic_in_3 0
switch_nic_out_3_sink 0
switch_nic_out_3_nic_in_0 0
switch_nic_out_3_nic_in_1 0
switch_nic_out_3_nic_in_2 1
switch_nic_out_3_nic_in_4 0
switch_nic_out_3_nic_in_5 0
switch_nic_out_3_nic_in_6 0
switch_nic_out_3_nic_in_7 0
switch_nic_out_3_nic_in_8 0
switch_nic_in_3_3 1
switch_3_nic_out_3 1
switch_source_nic_in_4 0
switch_nic_out_4_sink 0
switch_nic_out_4_nic_in_0 1
switch_nic_out_4_nic_in_1 0
switch_nic_out_4_nic_in_2 0
switch_nic_out_4_nic_in_3 0
switch_nic_out_4_nic_in_5 0
switch_nic_out_4_nic_in_6 0
switch_nic_out_4_nic_in_7 0
switch_nic_out_4_nic_in_8 0
switch_nic_in_4_4 1
switch_4_nic_out_4 1
switch_nic_in_4_5 1
switch_5_nic_out_4 1
switch_nic_in_4_6 1
switch_6_nic_out_4 1
switch_nic_in_4_7 1
switch_7_nic_out_4 1
switch_4_5 1
switch_4_6 1
switch_4_7 1
switch_5_4 1
switch_5_6 1
switch_5_7 1
switch_6_4 1
switch_6_5 1
switch_6_7 1
switch_7_4 1
switch_7_5 1
switch_7_6 1
switch_source_nic_in_5 0
switch_nic_out_5_sink 0
switch_nic_out_5_nic_in_0 0
switch_nic_out_5_nic_in_1 0
switch_nic_out_5_nic_in_2 0
switch_nic_out_5_nic_in_3 1
switch_nic_out_5_nic_in_4 0
switch_nic_out_5_nic_in_6 0
switch_nic_out_5_nic_in_7 0
switch_nic_out_5_nic_in_8 0
switch_nic_in_5_8 1
switch_8_nic_out_5 1
switch_source_nic_in_6 1
switch_nic_out_6_sink 0
switch_nic_out_6_nic_in_0 0
switch_nic_out_6_nic_in_1 0
switch_nic_out_6_nic_in_2 0
switch_nic_out_6_nic_in_3 0
switch_nic_out_6_nic_in_4 1
switch_nic_out_6_nic_in_5 0
switch_nic_out_6_nic_in_7 0
switch_nic_out_6_nic_in_8 0
switch_nic_in_6_9 1
switch_9_nic_out_6 1
switch_source_nic_in_7 0
switch_nic_out_7_sink 0
switch_nic_out_7_nic_in_0 0
switch_nic_out_7_nic_in_1 0
switch_nic_out_7_nic_in_2 0
switch_nic_out_7_nic_in_3 0
switch_nic_out_7_nic_in_4 0
switch_nic_out_7_nic_in_5 0
switch_nic_out_7_nic_in_6 0
switch_nic_out_7_nic_in_8 1
switch_nic_in_7_10 1
switch_10_nic_out_7 1
switch_source_nic_in_8 0
switch_nic_out_8_sink 0
switch_nic_out_8_nic_in_0 0
switch_nic_out_8_nic_in_1 1
switch_nic_out_8_nic_in_2 0
switch_nic_out_8_nic_in_3 0
switch_nic_out_8_nic_in_4 0
switch_nic_out_8_nic_in_5 0
switch_nic_out_8_nic_in_6 0
switch_nic_out_8_nic_in_7 0
switch_nic_in_8_11 1
switch_11_nic_out_8 1
group_tp_active_0 0
group_tp_active_1 0
group_tp_active_2 0
group_tp_active_3 0
group_tp_active_4 1
group_tp_active_5 0
group_tp_active_6 0
group_tp_active_7 0
group_tp_active_8 0
is_start_zero_0_for_source_nic_in_0 0
is_end_complete_0 0
pair_ok_0_1_for_nic_out_0_nic_in_1 0
pair_ok_0_2_for_nic_out_0_nic_in_2 0
pair_ok_0_3_for_nic_out_0_nic_in_3 0
pair_ok_0_4_for_nic_out_0_nic_in_4 0
pair_ok_0_5_for_nic_out_0_nic_in_4 0
pair_ok_0_6_for_nic_out_0_nic_in_4 0
pair_ok_0_7_for_nic_out_0_nic_in_4 0
pair_ok_0_8_for_nic_out_0_nic_in_5 0
pair_ok_0_9_for_nic_out_0_nic_in_6 0
pair_ok_0_10_for_nic_out_0_nic_in_7 1
pair_ok_0_11_for_nic_out_0_nic_in_8 0
is_start_zero_1_for_source_nic_in_1 0
is_end_complete_1 0
pair_ok_1_0_for_nic_out_1_nic_in_0 0
pair_ok_1_2_for_nic_out_1_nic_in_2 0
pair_ok_1_3_for_nic_out_1_nic_in_3 0
pair_ok_1_4_for_nic_out_1_nic_in_4 0
pair_ok_1_5_for_nic_out_1_nic_in_4 0
pair_ok_1_6_for_nic_out_1_nic_in_4 0
pair_ok_1_7_for_nic_out_1_nic_in_4 0
pair_ok_1_8_for_nic_out_1_nic_in_5 1
pair_ok_1_9_for_nic_out_1_nic_in_6 0
pair_ok_1_10_for_nic_out_1_nic_in_7 0
pair_ok_1_11_for_nic_out_1_nic_in_8 0
is_start_zero_2_for_source_nic_in_2 0
is_end_complete_2 1
pair_ok_2_0_for_nic_out_2_nic_in_0 0
pair_ok_2_1_for_nic_out_2_nic_in_1 0
pair_ok_2_3_for_nic_out_2_nic_in_3 0
pair_ok_2_4_for_nic_out_2_nic_in_4 0
pair_ok_2_5_for_nic_out_2_nic_in_4 0
pair_ok_2_6_for_nic_out_2_nic_in_4 0
pair_ok_2_7_for_nic_out_2_nic_in_4 0
pair_ok_2_8_for_nic_out_2_nic_in_5 0
pair_ok_2_9_for_nic_out_2_nic_in_6 0
pair_ok_2_10_for_nic_out_2_nic_in_7 0
pair_ok_2_11_for_nic_out_2_nic_in_8 0
is_start_zero_3_for_source_nic_in_3 0
is_end_complete_3 0
pair_ok_3_0_for_nic_out_3_nic_in_0 0
pair_ok_3_1_for_nic_out_3_nic_in_1 0
pair_ok_3_2_for_nic_out_3_nic_in_2 1
pair_ok_3_4_for_nic_out_3_nic_in_4 0
pair_ok_3_5_for_nic_out_3_nic_in_4 0
pair_ok_3_6_for_nic_out_3_nic_in_4 0
pair_ok_3_7_for_nic_out_3_nic_in_4 0
pair_ok_3_8_for_nic_out_3_nic_in_5 0
pair_ok_3_9_for_nic_out_3_nic_in_6 0
pair_ok_3_10_for_nic_out_3_nic_in_7 0
pair_ok_3_11_for_nic_out_3_nic_in_8 0
is_start_zero_4_for_source_nic_in_4 0
is_start_zero_5_for_source_nic_in_4 0
is_start_zero_6_for_source_nic_in_4 0
is_start_zero_7_for_source_nic_in_4 0
is_end_complete_4 0
is_end_complete_5 0
is_end_complete_6 0
is_end_complete_7 0
pair_ok_4_0_for_nic_out_4_nic_in_0 0
pair_ok_5_0_for_nic_out_4_nic_in_0 0
pair_ok_6_0_for_nic_out_4_nic_in_0 0
pair_ok_7_0_for_nic_out_4_nic_in_0 1
pair_ok_4_1_for_nic_out_4_nic_in_1 0
pair_ok_5_1_for_nic_out_4_nic_in_1 0
pair_ok_6_1_for_nic_out_4_nic_in_1 0
pair_ok_7_1_for_nic_out_4_nic_in_1 0
pair_ok_4_2_for_nic_out_4_nic_in_2 0
pair_ok_5_2_for_nic_out_4_nic_in_2 0
pair_ok_6_2_for_nic_out_4_nic_in_2 0
pair_ok_7_2_for_nic_out_4_nic_in_2 0
pair_ok_4_3_for_nic_out_4_nic_in_3 0
pair_ok_5_3_for_nic_out_4_nic_in_3 0
pair_ok_6_3_for_nic_out_4_nic_in_3 0
pair_ok_7_3_for_nic_out_4_nic_in_3 0
pair_ok_4_8_for_nic_out_4_nic_in_5 0
pair_ok_5_8_for_nic_out_4_nic_in_5 0
pair_ok_6_8_for_nic_out_4_nic_in_5 0
pair_ok_7_8_for_nic_out_4_nic_in_5 0
pair_ok_4_9_for_nic_out_4_nic_in_6 0
pair_ok_5_9_for_nic_out_4_nic_in_6 0
pair_ok_6_9_for_nic_out_4_nic_in_6 0
pair_ok_7_9_for_nic_out_4_nic_in_6 0
pair_ok_4_10_for_nic_out_4_nic_in_7 0
pair_ok_5_10_for_nic_out_4_nic_in_7 0
pair_ok_6_10_for_nic_out_4_nic_in_7 0
pair_ok_7_10_for_nic_out_4_nic_in_7 0
pair_ok_4_11_for_nic_out_4_nic_in_8 0
pair_ok_5_11_for_nic_out_4_nic_in_8 0
pair_ok_6_11_for_nic_out_4_nic_in_8 0
pair_ok_7_11_for_nic_out_4_nic_in_8 0
pp_permission_4_5 0
pp_permission_4_6 0
pp_permission_4_7 0
pp_permission_5_4 0
pp_permission_5_6 0
pp_permission_5_7 0
pp_permission_6_4 0
pp_permission_6_5 0
pp_permission_6_7 0
pp_permission_7_4 0
pp_permission_7_5 0
pp_permission_7_6 0
is_start_zero_8_for_source_nic_in_5 0
is_end_complete_8 0
pair_ok_8_0_for_nic_out_5_nic_in_0 0
pair_ok_8_1_for_nic_out_5_nic_in_1 0
pair_ok_8_2_for_nic_out_5_nic_in_2 0
pair_ok_8_3_for_nic_out_5_nic_in_3 1
pair_ok_8_4_for_nic_out_5_nic_in_4 0
pair_ok_8_5_for_nic_out_5_nic_in_4 0
pair_ok_8_6_for_nic_out_5_nic_in_4 0
pair_ok_8_7_for_nic_out_5_nic_in_4 0
pair_ok_8_9_for_nic_out_5_nic_in_6 0
pair_ok_8_10_for_nic_out_5_nic_in_7 0
pair_ok_8_11_for_nic_out_5_nic_in_8 0
is_start_zero_9_for_source_nic_in_6 1
is_end_complete_9 0
pair_ok_9_0_for_nic_out_6_nic_in_0 0
pair_ok_9_1_for_nic_out_6_nic_in_1 0
pair_ok_9_2_for_nic_out_6_nic_in_2 0
pair_ok_9_3_for_nic_out_6_nic_in_3 0
pair_ok_9_4_for_nic_out_6_nic_in_4 0
pair_ok_9_5_for_nic_out_6_nic_in_4 1
pair_ok_9_6_for_nic_out_6_nic_in_4 0
pair_ok_9_7_for_nic_out_6_nic_in_4 0
pair_ok_9_8_for_nic_out_6_nic_in_5 0
pair_ok_9_10_for_nic_out_6_nic_in_7 0
pair_ok_9_11_for_nic_out_6_nic_in_8 0
is_start_zero_10_for_source_nic_in_7 0
is_end_complete_10 0
pair_ok_10_0_for_nic_out_7_nic_in_0 0
pair_ok_10_1_for_nic_out_7_nic_in_1 0
pair_ok_10_2_for_nic_out_7_nic_in_2 0
pair_ok_10_3_for_nic_out_7_nic_in_3 0
pair_ok_10_4_for_nic_out_7_nic_in_4 0
pair_ok_10_5_for_nic_out_7_nic_in_4 0
pair_ok_10_6_for_nic_out_7_nic_in_4 0
pair_ok_10_7_for_nic_out_7_nic_in_4 0
pair_ok_10_8_for_nic_out_7_nic_in_5 0
pair_ok_10_9_for_nic_out_7_nic_in_6 0
pair_ok_10_11_for_nic_out_7_nic_in_8 1
is_start_zero_11_for_source_nic_in_8 0
is_end_complete_11 0
pair_ok_11_0_for_nic_out_8_nic_in_0 0
pair_ok_11_1_for_nic_out_8_nic_in_1 1
pair_ok_11_2_for_nic_out_8_nic_in_2 0
pair_ok_11_3_for_nic_out_8_nic_in_3 0
pair_ok_11_4_for_nic_out_8_nic_in_4 0
pair_ok_11_5_for_nic_out_8_nic_in_4 0
pair_ok_11_6_for_nic_out_8_nic_in_4 0
pair_ok_11_7_for_nic_out_8_nic_in_4 0
pair_ok_11_8_for_nic_out_8_nic_in_5 0
pair_ok_11_9_for_nic_out_8_nic_in_6 0
pair_ok_11_10_for_nic_out_8_nic_in_7 0
